NAME /Users/henri/Research/solvers/instances/idol-instances/robust/collection/cbp_Subramanyam_et_al_2020/CapBud_N15_14/models/uncertain_technology_matrix/
ROWS
 N  OBJ
 L  capacity
 L  c_1835
 L  c_1836
 L  c_1837
 L  c_1838
 L  c_1839
 L  c_1840
 L  c_1841
 L  c_1842
 L  c_1843
 L  c_1844
 L  c_1845
 L  c_1846
 L  c_1847
 L  c_1848
 L  c_1849
COLUMNS
    MARKER    'MARKER'                 'INTORG'
    x_0        OBJ        -7.42937
    x_0        c_1835     1
    x_0        capacity   1.48587
    x_1        OBJ        -1.28653
    x_1        c_1836     1
    x_1        capacity   0.257305
    x_2        OBJ        -6.03455
    x_2        c_1837     1
    x_2        capacity   1.20691
    x_3        OBJ        -1.32367
    x_3        c_1838     1
    x_3        capacity   0.264734
    x_4        OBJ        -1.02644
    x_4        c_1839     1
    x_4        capacity   0.205289
    x_5        OBJ        -7.39302
    x_5        c_1840     1
    x_5        capacity   1.4786
    x_6        OBJ        -8.01671
    x_6        c_1841     1
    x_6        capacity   1.60334
    x_7        OBJ        -5.47694
    x_7        c_1842     1
    x_7        capacity   1.09539
    x_8        OBJ        -1.40711
    x_8        c_1843     1
    x_8        capacity   0.281423
    x_9        OBJ        -7.49343
    x_9        c_1844     1
    x_9        capacity   1.49869
    x_10       OBJ        -1.07035
    x_10       c_1845     1
    x_10       capacity   0.21407
    x_11       OBJ        -5.83913
    x_11       c_1846     1
    x_11       capacity   1.16783
    x_12       OBJ        -7.33999
    x_12       c_1847     1
    x_12       capacity   1.468
    x_13       OBJ        -7.13538
    x_13       c_1848     1
    x_13       capacity   1.42708
    x_14       OBJ        -7.11732
    x_14       c_1849     1
    x_14       capacity   1.42346
    y_0        OBJ        -5.9435
    y_0        c_1835     1
    y_0        capacity   1.48587
    y_1        OBJ        -1.02922
    y_1        c_1836     1
    y_1        capacity   0.257305
    y_2        OBJ        -4.82764
    y_2        c_1837     1
    y_2        capacity   1.20691
    y_3        OBJ        -1.05893
    y_3        c_1838     1
    y_3        capacity   0.264734
    y_4        OBJ        -0.821155
    y_4        c_1839     1
    y_4        capacity   0.205289
    y_5        OBJ        -5.91442
    y_5        c_1840     1
    y_5        capacity   1.4786
    y_6        OBJ        -6.41337
    y_6        c_1841     1
    y_6        capacity   1.60334
    y_7        OBJ        -4.38155
    y_7        c_1842     1
    y_7        capacity   1.09539
    y_8        OBJ        -1.12569
    y_8        c_1843     1
    y_8        capacity   0.281423
    y_9        OBJ        -5.99474
    y_9        c_1844     1
    y_9        capacity   1.49869
    y_10       OBJ        -0.85628
    y_10       c_1845     1
    y_10       capacity   0.21407
    y_11       OBJ        -4.67131
    y_11       c_1846     1
    y_11       capacity   1.16783
    y_12       OBJ        -5.87199
    y_12       c_1847     1
    y_12       capacity   1.468
    y_13       OBJ        -5.70831
    y_13       c_1848     1
    y_13       capacity   1.42708
    y_14       OBJ        -5.69386
    y_14       c_1849     1
    y_14       capacity   1.42346
    MARKER    'MARKER'                 'INTEND'
RHS
    RHS       capacity   37.695
    RHS       c_1835     1
    RHS       c_1836     1
    RHS       c_1837     1
    RHS       c_1838     1
    RHS       c_1839     1
    RHS       c_1840     1
    RHS       c_1841     1
    RHS       c_1842     1
    RHS       c_1843     1
    RHS       c_1844     1
    RHS       c_1845     1
    RHS       c_1846     1
    RHS       c_1847     1
    RHS       c_1848     1
    RHS       c_1849     1
BOUNDS
 LI BND       x_0        0
 UI BND       x_0        1
 LI BND       x_1        0
 UI BND       x_1        1
 LI BND       x_2        0
 UI BND       x_2        1
 LI BND       x_3        0
 UI BND       x_3        1
 LI BND       x_4        0
 UI BND       x_4        1
 LI BND       x_5        0
 UI BND       x_5        1
 LI BND       x_6        0
 UI BND       x_6        1
 LI BND       x_7        0
 UI BND       x_7        1
 LI BND       x_8        0
 UI BND       x_8        1
 LI BND       x_9        0
 UI BND       x_9        1
 LI BND       x_10       0
 UI BND       x_10       1
 LI BND       x_11       0
 UI BND       x_11       1
 LI BND       x_12       0
 UI BND       x_12       1
 LI BND       x_13       0
 UI BND       x_13       1
 LI BND       x_14       0
 UI BND       x_14       1
 LI BND       y_0        0
 UI BND       y_0        1
 LI BND       y_1        0
 UI BND       y_1        1
 LI BND       y_2        0
 UI BND       y_2        1
 LI BND       y_3        0
 UI BND       y_3        1
 LI BND       y_4        0
 UI BND       y_4        1
 LI BND       y_5        0
 UI BND       y_5        1
 LI BND       y_6        0
 UI BND       y_6        1
 LI BND       y_7        0
 UI BND       y_7        1
 LI BND       y_8        0
 UI BND       y_8        1
 LI BND       y_9        0
 UI BND       y_9        1
 LI BND       y_10       0
 UI BND       y_10       1
 LI BND       y_11       0
 UI BND       y_11       1
 LI BND       y_12       0
 UI BND       y_12       1
 LI BND       y_13       0
 UI BND       y_13       1
 LI BND       y_14       0
 UI BND       y_14       1
ENDATA
